sat
(:added-eqs                       305016
 :arith-eq-adapter                2080
 :arith-bound-propagations-lp     104337
 :arith-branch                    468
 :arith-conflicts                 20693
 :arith-cube-calls                169
 :arith-diseq                     227743
 :arith-fixed-eqs                 143787
 :arith-gcd-calls                 2851
 :arith-gomory-cuts               203
 :arith-grobner-calls             2894
 :arith-grobner-conflicts         1003
 :arith-hnf-calls                 4
 :arith-horner-calls              729
 :arith-horner-conflicts          17
 :arith-horner-cross-nested-forms 94456
 :arith-lower                     242808
 :arith-make-feasible             79958
 :arith-max-columns               1438
 :arith-max-rows                  986
 :arith-nla-add-bounds            667
 :arith-nla-lemmas                13029
 :arith-nla-propagate-bounds      3082
 :arith-nla-propagate-eq          52228
 :arith-nra-calls                 188
 :arith-offset-eqs                65357
 :arith-patches                   2851
 :arith-patches-success           2193
 :arith-upper                     282114
 :binary-propagations             1434323
 :conflicts                       6483
 :decisions                       965564
 :del-clause                      18899
 :final-checks                    6007
 :max-memory                      58.87
 :memory                          20.60
 :minimized-lits                  58759
 :mk-bool-var                     33752
 :mk-clause                       62906
 :mk-clause-binary                10735
 :nlsat-conflicts                 18626
 :nlsat-decisions                 307
 :nlsat-propagations              701892
 :nlsat-stages                    317822
 :num-allocs                      58609924102.00
 :num-checks                      1
 :propagations                    2628137
 :restarts                        49
 :rlimit-count                    30353549
 :solve-eqs-elim-vars             170
 :solve-eqs-steps                 1052
 :time                            17.29
 :total-time                      17.29)
